webassembly/ejemplos_dzn/folder6_json_36.dzn
TERM = { '.', 's(2)', 'in_1', 'local_0', 'in_2', 's(1)', 's(0)', 'in_0'};
null = '.';
s = 6;
n = 8;
ndeps = 0;
max_registers_sz = 4;
NR = 1;
registers = [|'local_0', 's(1)'|];
dependencies = [| |];
GET_ENUM = { GET1, GET2, GET3, GET4, GET5};
SET_ENUM = { SET1, SET2, SET3, SET4, SET5};
TEE_ENUM = { TEE1, TEE2, TEE3, TEE4, TEE5};
N = 3;
OP = { 'i32.const_0', 'i32.add_0', 'i32.sub_0' };
in_ops = [0, 2, 2 ];
out_ops = [1, 1, 1 ];
in1 = ['.', 'in_0', 's(0)' ];
in2 = ['.', 'in_1', 'in_2' ];
in3 = ['.', '.', '.' ];
out1 = ['s(2)', 's(0)', 's(1)' ];
out2 = ['.', '.', '.' ];
out3 = ['.', '.', '.' ];
comm = [false, true, false ];
gas = [1, 1, 1 ];
sz = [1, 1, 1 ];
stor = [false, false, false ];
lb = [ 1, 1, 1 ];
ub = [ 6, 6, 6 ];
startstack = [ 'in_0', 'in_1', 'in_2', null, null, null, null, null ];
endstack = [ 's(2)', 's(1)', null, null, null, null, null, null ];
