webassembly/ejemplos_results/6/folder6_json_36.txt
value = 6;
fgas = [1, 1, 1, 1, 1, 1];
fsize = [1, 1, 1, 1, 1, 1];
states = 
[|   in_0,   in_1, in_2, '.', '.', '.', '.', '.'
 | 's(0)',   in_2,  '.', '.', '.', '.', '.', '.'
 | 's(0)',   in_2,  '.', '.', '.', '.', '.', '.'
 | 's(1)', 's(1)',  '.', '.', '.', '.', '.', '.'
 | 's(1)', 's(1)',  '.', '.', '.', '.', '.', '.'
 | 's(1)',    '.',  '.', '.', '.', '.', '.', '.'
 | 's(2)', 's(1)',  '.', '.', '.', '.', '.', '.'
 |];
register_states = 
[| local_0, '.', '.', '.', '.'
 | local_0, '.', '.', '.', '.'
 |  's(0)', '.', '.', '.', '.'
 |  's(0)', '.', '.', '.', '.'
 |  's(1)', '.', '.', '.', '.'
 |  's(1)', '.', '.', '.', '.'
 |  's(1)', '.', '.', '.', '.'
 |];
program = [O('i32.add_0'), TEE(TEE1), O('i32.sub_0'), TEE(TEE1), S(SET1), O('i32.const_0')];
% time elapsed: 0.08 s
----------
value = 5;
fgas = [1, 1, 1, 1, 1, 0];
fsize = [1, 1, 1, 1, 1, 1];
states = 
[|   in_0,   in_1, in_2, '.', '.', '.', '.', '.'
 | 's(0)',   in_2,  '.', '.', '.', '.', '.', '.'
 | 's(1)', 's(1)',  '.', '.', '.', '.', '.', '.'
 | 's(1)',    '.',  '.', '.', '.', '.', '.', '.'
 | 's(1)',    '.',  '.', '.', '.', '.', '.', '.'
 | 's(2)', 's(1)',  '.', '.', '.', '.', '.', '.'
 | 's(2)', 's(1)',  '.', '.', '.', '.', '.', '.'
 |];
register_states = 
[| local_0, '.', '.', '.', '.'
 | local_0, '.', '.', '.', '.'
 | local_0, '.', '.', '.', '.'
 |  's(1)', '.', '.', '.', '.'
 |  's(1)', '.', '.', '.', '.'
 |  's(1)', '.', '.', '.', '.'
 |  's(1)', '.', '.', '.', '.'
 |];
program = [O('i32.add_0'), O('i32.sub_0'), S(SET1), TEE(TEE1), O('i32.const_0'), NOP];
% time elapsed: 0.08 s
----------
value = 4;
fgas = [1, 1, 1, 1, 0, 0];
fsize = [1, 1, 1, 1, 1, 1];
states = 
[|   in_0,   in_1, in_2, '.', '.', '.', '.', '.'
 | 's(0)',   in_2,  '.', '.', '.', '.', '.', '.'
 | 's(1)', 's(1)',  '.', '.', '.', '.', '.', '.'
 | 's(1)',    '.',  '.', '.', '.', '.', '.', '.'
 | 's(2)', 's(1)',  '.', '.', '.', '.', '.', '.'
 | 's(2)', 's(1)',  '.', '.', '.', '.', '.', '.'
 | 's(2)', 's(1)',  '.', '.', '.', '.', '.', '.'
 |];
register_states = 
[| local_0, '.', '.', '.', '.'
 | local_0, '.', '.', '.', '.'
 | local_0, '.', '.', '.', '.'
 |  's(1)', '.', '.', '.', '.'
 |  's(1)', '.', '.', '.', '.'
 |  's(1)', '.', '.', '.', '.'
 |  's(1)', '.', '.', '.', '.'
 |];
program = [O('i32.add_0'), O('i32.sub_0'), S(SET1), O('i32.const_0'), NOP, NOP];
% time elapsed: 0.08 s
----------
==========
% time elapsed: 0.08 s
% [value > 3]
